[on. 05. april 16:04:11 +0200 2023]  ./input/alternate_g_np_100/100-3-1.gcc
Set parameter Username
Academic license - for non-commercial use only - expires 2024-03-28
Set parameter TimeLimit to value 1800
Set parameter PreCrush to value 1
Set parameter LazyConstraints to value 1
Gurobi Optimizer version 10.0.1 build v10.0.1rc0 (linux64)

CPU model: AMD Ryzen 9 5950X 16-Core Processor, instruction set [SSE2|AVX|AVX2]
Thread count: 16 physical cores, 32 logical processors, using up to 32 threads

Optimize a model with 109 rows, 1000 columns and 2800 nonzeros
Model fingerprint: 0xb02f1988
Variable types: 0 continuous, 1000 integer (1000 binary)
Coefficient statistics:
  Matrix range     [1e+00, 1e+00]
  Objective range  [2e+00, 1e+02]
  Bounds range     [1e+00, 1e+00]
  RHS range        [1e+00, 1e+00]
Presolve added 8 rows and 8 columns
Presolve time: 0.00s
Presolved: 117 rows, 1008 columns, 2024 nonzeros
Variable types: 0 continuous, 1008 integer (1000 binary)

Root relaxation: objective 5.139000e+03, 1 iterations, 0.00 seconds (0.00 work units)

    Nodes    |    Current Node    |     Objective Bounds      |     Work
 Expl Unexpl |  Obj  Depth IntInf | Incumbent    BestBd   Gap | It/Node Time

     0     0 5139.00000    0    -          - 5139.00000      -     -    0s
     0     0 5139.00000    0    -          - 5139.00000      -     -    0s
     0     0 5139.00000    0    -          - 5139.00000      -     -    0s
     0     0 5139.00000    0    -          - 5139.00000      -     -    0s
     0     0 5139.00000    0   24          - 5139.00000      -     -    0s
     0     0 5139.00000    0   11          - 5139.00000      -     -    0s
     0     0 5139.00000    0    -          - 5139.00000      -     -    0s
     0     0 5139.00000    0    -          - 5139.00000      -     -    0s
     0     0 5139.00000    0    8          - 5139.00000      -     -    0s
     0     0 5139.00000    0    -          - 5139.00000      -     -    0s
     0     0 5139.00000    0    9          - 5139.00000      -     -    0s
     0     2 5139.00000    0    5          - 5139.00000      -     -    0s
 33382 10731 infeasible   57               - 5139.00000      -   6.1    5s
 62386 25884 5139.00000   31    -          - 5139.00000      -   6.7   10s
 90344 40340 5139.00000  106    -          - 5139.00000      -   8.0   15s
 117970 54898 infeasible  137               - 5139.00000      -   9.7   20s
 140713 67089 5139.00000   71    -          - 5139.00000      -  10.9   25s
 163319 80128 infeasible  177               - 5139.00000      -  11.7   30s
 184535 92856 5139.00000   67    9          - 5139.00000      -  12.5   40s
 196225 98025 5139.00000   52    -          - 5139.00000      -  13.1   45s
 213509 103606 5139.00000   52    6          - 5139.00000      -  13.3   50s
 231170 108489 5139.00000  128   18          - 5139.00000      -  14.0   55s
 246468 114599 5139.00000   96   44          - 5139.00000      -  14.9   60s
 257518 118225 5139.00000  118   21          - 5139.00000      -  15.5   65s
 271117 123801 5127.00000  145   12          - 5139.00000      -  16.5   70s
 282090 127267 5139.00000   97   14          - 5139.00000      -  17.6   75s
 292401 131174 5139.00000   45   76          - 5139.00000      -  18.4   81s
*296318 53947              66    5139.0000000 5139.00000  0.00%  18.7   83s

Cutting planes:
  User: 707
  Lazy constraints: 3127

Explored 298412 nodes (5639217 simplex iterations) in 83.29 seconds (40.78 work units)
Thread count was 32 (of 32 available processors)

Solution count 1: 5139 

Optimal solution found (tolerance 1.00e-04)
Best objective 5.138999999997e+03, best bound 5.138999999997e+03, gap 0.0000%

User-callback calls 606241, time in user-callback 18.00 sec
Minimal separator inequalities added: 299215
Indegree inequalities added: 0
WRONG SOLUTION
[on. 05. april 16:05:34 +0200 2023]  done

